
Gurobi 10.0.1 (linux64, gurobi_cl) logging started Tue Nov 21 03:54:44 2023

Set parameter Username
Set parameter LogFile to value "gurobi.log"
Academic license - for non-commercial use only - expires 2024-11-13
Using license file /home/kasniac/gurobi.lic

Gurobi Optimizer version 10.0.1 build v10.0.1rc0 (linux64)
Copyright (c) 2023, Gurobi Optimization, LLC

Read LP format model from file modelo-verano.lp
Reading time = 0.00 seconds
: 4 rows, 6 columns, 12 nonzeros

CPU model: AMD Opteron(tm) Processor 6174, instruction set [SSE2]
Thread count: 24 physical cores, 24 logical processors, using up to 24 threads

Optimize a model with 4 rows, 6 columns and 12 nonzeros
Model fingerprint: 0x228ba221
Variable types: 3 continuous, 3 integer (3 binary)
Coefficient statistics:
  Matrix range     [1e+00, 2e+02]
  Objective range  [3e+01, 1e+02]
  Bounds range     [1e+00, 1e+00]
  RHS range        [2e+02, 2e+02]
Found heuristic solution: objective -0.0000000
Presolve time: 0.00s
Presolved: 4 rows, 6 columns, 12 nonzeros
Variable types: 3 continuous, 3 integer (3 binary)

Root relaxation: objective 1.441176e+02, 2 iterations, 0.00 seconds (0.00 work units)

    Nodes    |    Current Node    |     Objective Bounds      |     Work
 Expl Unexpl |  Obj  Depth IntInf | Incumbent    BestBd   Gap | It/Node Time

     0     0  144.11765    0    1   -0.00000  144.11765      -     -    0s
H    0     0                     140.0000000  144.11765  2.94%     -    0s

Explored 1 nodes (2 simplex iterations) in 0.01 seconds (0.00 work units)
Thread count was 24 (of 24 available processors)

Solution count 2: 140 -0 

Optimal solution found (tolerance 1.00e-04)
Best objective 1.400000000000e+02, best bound 1.400000000000e+02, gap 0.0000%

Wrote result file 'modelo-verano.sol'


Gurobi 10.0.1 (linux64, gurobi_cl) logging started Tue Nov 21 03:57:12 2023

Set parameter Username
Set parameter LogFile to value "gurobi.log"
Academic license - for non-commercial use only - expires 2024-11-13
Using license file /home/kasniac/gurobi.lic

Gurobi Optimizer version 10.0.1 build v10.0.1rc0 (linux64)
Copyright (c) 2023, Gurobi Optimization, LLC

Read LP format model from file modelo-verano.lp
Reading time = 0.00 seconds
: 4 rows, 6 columns, 12 nonzeros

CPU model: AMD Opteron(tm) Processor 6174, instruction set [SSE2]
Thread count: 24 physical cores, 24 logical processors, using up to 24 threads

Optimize a model with 4 rows, 6 columns and 12 nonzeros
Model fingerprint: 0x228ba221
Variable types: 3 continuous, 3 integer (3 binary)
Coefficient statistics:
  Matrix range     [1e+00, 2e+02]
  Objective range  [3e+01, 1e+02]
  Bounds range     [1e+00, 1e+00]
  RHS range        [2e+02, 2e+02]
Found heuristic solution: objective -0.0000000
Presolve time: 0.00s
Presolved: 4 rows, 6 columns, 12 nonzeros
Variable types: 3 continuous, 3 integer (3 binary)

Root relaxation: objective 1.441176e+02, 2 iterations, 0.00 seconds (0.00 work units)

    Nodes    |    Current Node    |     Objective Bounds      |     Work
 Expl Unexpl |  Obj  Depth IntInf | Incumbent    BestBd   Gap | It/Node Time

     0     0  144.11765    0    1   -0.00000  144.11765      -     -    0s
H    0     0                     140.0000000  144.11765  2.94%     -    0s

Explored 1 nodes (2 simplex iterations) in 0.01 seconds (0.00 work units)
Thread count was 24 (of 24 available processors)

Solution count 2: 140 -0 

Optimal solution found (tolerance 1.00e-04)
Best objective 1.400000000000e+02, best bound 1.400000000000e+02, gap 0.0000%

Wrote result file 'modelo-verano.sol'


Gurobi 10.0.1 (linux64, gurobi_cl) logging started Tue Nov 21 04:05:44 2023

Set parameter Username
Set parameter LogFile to value "gurobi.log"
Academic license - for non-commercial use only - expires 2024-11-13
Using license file /home/kasniac/gurobi.lic

Gurobi Optimizer version 10.0.1 build v10.0.1rc0 (linux64)
Copyright (c) 2023, Gurobi Optimization, LLC

Read LP format model from file ejemplo.lp
Reading time = 0.00 seconds
: 1 rows, 1 columns, 1 nonzeros

CPU model: AMD Opteron(tm) Processor 6174, instruction set [SSE2]
Thread count: 24 physical cores, 24 logical processors, using up to 24 threads

Optimize a model with 1 rows, 1 columns and 1 nonzeros
Model fingerprint: 0x622fddb9
Coefficient statistics:
  Matrix range     [1e+00, 1e+00]
  Objective range  [1e+00, 1e+00]
  Bounds range     [0e+00, 0e+00]
  RHS range        [2e+01, 2e+01]
Presolve removed 1 rows and 1 columns
Presolve time: 0.00s
Presolve: All rows and columns removed
Iteration    Objective       Primal Inf.    Dual Inf.      Time
       0   -2.0000000e+01   0.000000e+00   0.000000e+00      0s

Solved in 0 iterations and 0.00 seconds (0.00 work units)
Optimal objective -2.000000000e+01

Gurobi 10.0.1 (linux64, gurobi_cl) logging started Tue Nov 21 04:06:22 2023

Set parameter Username
Set parameter LogFile to value "gurobi.log"
Academic license - for non-commercial use only - expires 2024-11-13
Using license file /home/kasniac/gurobi.lic

Gurobi Optimizer version 10.0.1 build v10.0.1rc0 (linux64)
Copyright (c) 2023, Gurobi Optimization, LLC

Read LP format model from file ejemplo.lp
Reading time = 0.00 seconds
: 1 rows, 1 columns, 1 nonzeros

CPU model: AMD Opteron(tm) Processor 6174, instruction set [SSE2]
Thread count: 24 physical cores, 24 logical processors, using up to 24 threads

Optimize a model with 1 rows, 1 columns and 1 nonzeros
Model fingerprint: 0x622fddb9
Coefficient statistics:
  Matrix range     [1e+00, 1e+00]
  Objective range  [1e+00, 1e+00]
  Bounds range     [0e+00, 0e+00]
  RHS range        [2e+01, 2e+01]
Presolve removed 1 rows and 1 columns
Presolve time: 0.00s
Presolve: All rows and columns removed
Iteration    Objective       Primal Inf.    Dual Inf.      Time
       0   -2.0000000e+01   0.000000e+00   0.000000e+00      0s

Solved in 0 iterations and 0.00 seconds (0.00 work units)
Optimal objective -2.000000000e+01

Wrote result file 'ejemplo.sol'

